8
2147483647 42 85 37 34 96 100 19 
42 2147483647 55 65 94 16 72 54 
85 55 2147483647 54 84 8 44 20 
37 65 54 2147483647 4 44 63 25 
34 94 84 4 2147483647 50 94 22 
96 16 8 44 50 2147483647 10 17 
100 72 44 63 94 10 2147483647 56 
19 54 20 25 22 17 56 2147483647 
